CPXPARAM_Read_DataCheck                          1
Found incumbent of value 0.000000 after 0.00 sec. (0.12 ticks)
Tried aggregator 1 time.
MIP Presolve eliminated 7 rows and 0 columns.
MIP Presolve modified 1 coefficients.
Reduced MIP has 342 rows, 4515 columns, and 20451 nonzeros.
Reduced MIP has 4515 binaries, 0 generals, 0 SOSs, and 0 indicators.
Presolve time = 0.02 sec. (7.91 ticks)
Tried aggregator 1 time.
Reduced MIP has 342 rows, 4515 columns, and 20451 nonzeros.
Reduced MIP has 4515 binaries, 0 generals, 0 SOSs, and 0 indicators.
Presolve time = 0.02 sec. (8.81 ticks)
Probing time = 0.02 sec. (3.66 ticks)
Clique table members: 14791.
MIP emphasis: balance optimality and feasibility.
MIP search method: dynamic search.
Parallel mode: deterministic, using up to 4 threads.
Root relaxation solution time = 0.03 sec. (23.96 ticks)

        Nodes                                         Cuts/
   Node  Left     Objective  IInf  Best Integer    Best Bound    ItCnt     Gap

*     0+    0                            0.0000    27743.0000              --- 
*     0+    0                          702.0000    27743.0000              --- 
      0     0    15041.6467    15      702.0000    15041.6467     1085     --- 
*     0+    0                         4178.0000    15041.6467           260.02%
      0     0     9034.8867     9     4178.0000  Cliques: 185     1111  116.25%
      0     0     9028.3698    11     4178.0000     Cuts: 185     1116  116.09%
*     0+    0                         4614.0000     9028.3698            95.67%
      0     0        cutoff           4614.0000     4614.0000     1116    0.00%
Elapsed time = 0.41 sec. (248.44 ticks, tree = 0.01 MB, solutions = 4)

Clique cuts applied:  358
Implied bound cuts applied:  1

Root node processing (before b&c):
  Real time             =    0.41 sec. (248.79 ticks)
Parallel b&c, 4 threads:
  Real time             =    0.00 sec. (0.00 ticks)
  Sync time (average)   =    0.00 sec.
  Wait time (average)   =    0.00 sec.
                          ------------
Total (root+branch&cut) =    0.41 sec. (248.79 ticks)
